# Solution for model r5_t18_m3_9
# Finished Task: 18 / 18
# Makespan: 639.0, Total Distance: 425.0, Total Time: 7.2555
# R O S F
0 0 12 64.0 64.0
1 1 7 91.0 91.0
2 2 18 71.0 71.0
3 3 9 103.0 103.0
4 4 17 62.0 62.0
5 4 -1 591.0 617.0
6 3 22 583.0 617.0
7 1 -1 393.0 426.0
8 0 10 274.0 306.0
9 3 15 325.0 350.0
10 0 -1 575.0 598.0
11 4 5 544.0 575.0
12 0 8 206.0 244.0
13 4 21 393.0 432.0
14 4 13 349.0 382.0
15 3 16 363.0 393.0
16 3 6 433.0 462.0
17 4 14 294.0 322.0
18 2 19 235.0 271.0
19 2 20 462.0 487.0
20 2 -1 506.0 544.0
21 4 11 487.0 524.0
22 3 -1 617.0 639.0
